NAME: n200q40G.tsp, 200 nodes, semilla 666
COMMENT: Problema aleatorio de norma euclidea
DIMENSION: 200
CAPACITY: 40
EDGE_WEIGHT_TYPE: EUC_2D
NODE_COORD_SECTION
1   0.0000   0.0000
2 235.0000 -286.0000
3 -447.0000 493.0000
4  60.0000 350.0000
5 -467.0000 374.0000
6 500.0000 390.0000
7 169.0000 153.0000
8 -413.0000 -465.0000
9 254.0000 -350.0000
10 -15.0000 -331.0000
11 -493.0000 341.0000
12 -223.0000  27.0000
13 305.0000 -209.0000
14 -60.0000 443.0000
15  35.0000 331.0000
16 -487.0000 -365.0000
17 -310.0000 -272.0000
18 347.0000  65.0000
19 416.0000 161.0000
20 299.0000 -15.0000
21 -173.0000 157.0000
22 360.0000 -12.0000
23 -291.0000 -184.0000
24 341.0000 299.0000
25 -15.0000 474.0000
26 -294.0000 -340.0000
27 -328.0000 134.0000
28 245.0000 108.0000
29 -403.0000 -282.0000
30 474.0000 -250.0000
31 -378.0000 413.0000
32 -240.0000 363.0000
33 -251.0000 -387.0000
34 -217.0000  74.0000
35 -379.0000  43.0000
36 -329.0000  34.0000
37 -408.0000 -209.0000
38 226.0000 -290.0000
39 368.0000 464.0000
40 -204.0000 -424.0000
41 -347.0000  23.0000
42 -38.0000 -191.0000
43 -185.0000 -398.0000
44 474.0000 -137.0000
45 -331.0000 -291.0000
46 -111.0000 280.0000
47 -363.0000 484.0000
48 -486.0000   7.0000
49 460.0000 300.0000
50 389.0000 189.0000
51 184.0000 -214.0000
52 183.0000 -55.0000
53 -412.0000 140.0000
54 -71.0000 -141.0000
55   4.0000 -281.0000
56 -189.0000 -475.0000
57 -278.0000 -383.0000
58 298.0000  75.0000
59 -176.0000 232.0000
60 127.0000 -19.0000
61 183.0000 194.0000
62  98.0000   2.0000
63  31.0000 -145.0000
64 207.0000 -488.0000
65  40.0000 291.0000
66 408.0000 113.0000
67 -63.0000 256.0000
68 -309.0000 343.0000
69 -385.0000 204.0000
70 -235.0000 -396.0000
71 360.0000 -345.0000
72 -449.0000 107.0000
73 -304.0000 408.0000
74 -280.0000 -325.0000
75 -221.0000  32.0000
76 -52.0000  21.0000
77 -460.0000 439.0000
78  12.0000 444.0000
79 -194.0000 -179.0000
80 277.0000 -75.0000
81 -23.0000 156.0000
82 -155.0000 111.0000
83 368.0000 -468.0000
84 -477.0000  28.0000
85 -96.0000  47.0000
86 -41.0000 -168.0000
87  -5.0000 -441.0000
88  34.0000  -6.0000
89  46.0000 380.0000
90 -369.0000 385.0000
91  39.0000 386.0000
92 -310.0000 -48.0000
93 340.0000 -462.0000
94 167.0000 389.0000
95 384.0000 -336.0000
96 246.0000   7.0000
97 495.0000 -475.0000
98 -202.0000 -66.0000
99 316.0000 142.0000
100 160.0000 135.0000
101 -40.0000  29.0000
102 -338.0000  -8.0000
103 -338.0000 166.0000
104 283.0000 -271.0000
105 -19.0000 349.0000
106 -340.0000 236.0000
107 158.0000 198.0000
108 -48.0000 150.0000
109 -10.0000 421.0000
110 -436.0000 182.0000
111 -458.0000 343.0000
112 178.0000 -147.0000
113 -447.0000 168.0000
114 -406.0000 127.0000
115 -26.0000 -170.0000
116 -215.0000 -255.0000
117 -441.0000 414.0000
118 186.0000  19.0000
119 161.0000 -338.0000
120 -133.0000  33.0000
121 -19.0000 499.0000
122 297.0000 -484.0000
123 270.0000 -180.0000
124 -122.0000 -138.0000
125 332.0000 382.0000
126 361.0000 -114.0000
127 408.0000  34.0000
128 -321.0000 -264.0000
129 -383.0000 380.0000
130 -278.0000  25.0000
131 422.0000 -443.0000
132 -265.0000 -423.0000
133 141.0000  -6.0000
134 307.0000 -358.0000
135 -284.0000 -250.0000
136 -32.0000 -39.0000
137 494.0000 -458.0000
138  29.0000 306.0000
139 -368.0000  52.0000
140 388.0000 281.0000
141 244.0000  15.0000
142 417.0000 -106.0000
143 230.0000 -335.0000
144 207.0000 104.0000
145 -115.0000 360.0000
146 364.0000 453.0000
147 -140.0000 -39.0000
148 -416.0000  -8.0000
149 -278.0000 -70.0000
150 194.0000 -387.0000
151 366.0000 -490.0000
152 -220.0000 282.0000
153 -297.0000  95.0000
154 -496.0000 -290.0000
155 -380.0000 -321.0000
156 483.0000 -298.0000
157 -425.0000 279.0000
158 -487.0000 -451.0000
159 143.0000 -460.0000
160 -311.0000 -492.0000
161  62.0000 -162.0000
162 -134.0000 258.0000
163 -160.0000 203.0000
164 222.0000 -10.0000
165 -483.0000 -20.0000
166 478.0000 -293.0000
167 -191.0000 -458.0000
168 -193.0000 403.0000
169  66.0000 -468.0000
170 -237.0000 -145.0000
171 -271.0000 -69.0000
172 243.0000 -402.0000
173 141.0000 198.0000
174 -405.0000 292.0000
175 -364.0000  19.0000
176 206.0000 -324.0000
177  52.0000 141.0000
178 268.0000  81.0000
179 -199.0000 -413.0000
180 385.0000 -254.0000
181 -289.0000 434.0000
182 -280.0000 -275.0000
183 323.0000 -338.0000
184  95.0000 -163.0000
185   5.0000 135.0000
186 309.0000 358.0000
187  41.0000 257.0000
188 -246.0000 312.0000
189 -202.0000 396.0000
190 -466.0000  50.0000
191 -451.0000 -394.0000
192  77.0000 210.0000
193 -202.0000 197.0000
194 -232.0000 354.0000
195   1.0000 -62.0000
196  47.0000  77.0000
197 297.0000 482.0000
198 -129.0000 490.0000
199 -155.0000 366.0000
200 -458.0000  39.0000
DISPLAY_DATA_SECTION:
 1  250  250
 2  367  107
 3   26  496
 4  280  425
 5   16  437
 6  500  445
 7  334  326
 8   43   17
 9  377   75
10  242   84
11    3  420
12  138  263
13  402  145
14  220  471
15  267  415
16    6   67
17   95  114
18  423  282
19  458  330
20  399  242
21  163  328
22  430  244
23  104  158
24  420  399
25  242  487
26  103   80
27   86  317
28  372  304
29   48  109
30  487  125
31   61  456
32  130  431
33  124   56
34  141  287
35   60  271
36   85  267
37   46  145
38  363  105
39  434  482
40  148   38
41   76  261
42  231  154
43  157   51
44  487  181
45   84  104
46  194  390
47   68  492
48    7  253
49  480  400
50  444  344
51  342  143
52  341  222
53   44  320
54  214  179
55  252  109
56  155   12
57  111   58
58  399  287
59  162  366
60  313  240
61  341  347
62  299  251
63  265  177
64  353    6
65  270  395
66  454  306
67  218  378
68   95  421
69   57  352
70  132   52
71  430   77
72   25  303
73   98  454
74  110   87
75  139  266
76  224  260
77   20  469
78  256  472
79  153  160
80  388  212
81  238  328
82  172  305
83  434   16
84   11  264
85  202  273
86  229  166
87  247   29
88  267  247
89  273  440
90   65  442
91  269  443
92   95  226
93  420   19
94  333  444
95  442   82
96  373  253
97  497   12
98  149  217
99  408  321
100  330  317
101  230  264
102   81  246
103   81  333
104  391  114
105  240  424
106   80  368
107  329  349
108  226  325
109  245  460
110   32  341
111   21  421
112  339  176
113   26  334
114   47  313
115  237  165
116  142  122
117   29  457
118  343  259
119  330   81
120  183  266
121  240  499
122  398    8
123  385  160
124  189  181
125  416  441
126  430  193
127  454  267
128   89  118
129   58  440
130  111  262
131  461   28
132  117   38
133  320  247
134  403   71
135  108  125
136  234  230
137  497   21
138  264  403
139   66  276
140  444  390
141  372  257
142  458  197
143  365   82
144  353  302
145  192  430
146  432  476
147  180  230
148   42  246
149  111  215
150  347   56
151  433    5
152  140  391
153  101  297
154    2  105
155   60   89
156  491  101
157   37  389
158    6   24
159  321   20
160   94    4
161  281  169
162  183  379
163  170  351
164  361  245
165    8  240
166  489  103
167  154   21
168  153  451
169  283   16
170  131  177
171  114  215
172  371   49
173  320  349
174   47  396
175   68  259
176  353   88
177  276  320
178  384  290
179  150   43
180  442  123
181  105  467
182  110  112
183  411   81
184  297  168
185  252  317
186  404  429
187  270  378
188  127  406
189  149  448
190   17  275
191   24   53
192  288  355
193  149  348
194  134  427
195  250  219
196  273  288
197  398  491
198  185  495
199  172  433
200   21  269
DEMAND_SECTION
1 -10
2 -1
3 0
4 -4
5 -1
6 3
7 10
8 6
9 3
10 10
11 4
12 -6
13 5
14 2
15 1
16 -5
17 3
18 -4
19 -3
20 3
21 -4
22 -1
23 -8
24 8
25 -9
26 -4
27 -9
28 -3
29 -5
30 3
31 0
32 -4
33 -3
34 9
35 9
36 -1
37 -2
38 0
39 -7
40 -7
41 8
42 -6
43 -8
44 9
45 -2
46 -3
47 -7
48 0
49 5
50 0
51 6
52 3
53 10
54 -1
55 -9
56 0
57 0
58 2
59 1
60 -3
61 -4
62 -2
63 7
64 0
65 6
66 -8
67 1
68 -4
69 -2
70 -7
71 -10
72 9
73 8
74 -4
75 8
76 -2
77 6
78 10
79 6
80 0
81 2
82 7
83 -5
84 7
85 10
86 9
87 -1
88 -7
89 -8
90 -6
91 5
92 -1
93 -5
94 -8
95 -4
96 -7
97 -7
98 -6
99 -6
100 -5
101 9
102 5
103 9
104 3
105 7
106 9
107 9
108 4
109 0
110 -4
111 -6
112 -3
113 -4
114 1
115 -5
116 2
117 3
118 7
119 -7
120 9
121 -7
122 3
123 -3
124 7
125 6
126 8
127 -4
128 -2
129 -4
130 6
131 -8
132 0
133 -3
134 4
135 10
136 0
137 8
138 -3
139 1
140 0
141 -7
142 2
143 0
144 -5
145 0
146 -1
147 5
148 -2
149 -6
150 -8
151 0
152 -1
153 -3
154 10
155 -2
156 -7
157 -7
158 2
159 1
160 10
161 5
162 6
163 0
164 -4
165 8
166 -1
167 -5
168 0
169 -3
170 -8
171 -4
172 1
173 -5
174 9
175 -6
176 -5
177 1
178 4
179 -8
180 -2
181 1
182 8
183 8
184 2
185 -4
186 10
187 -6
188 1
189 -8
190 0
191 1
192 -4
193 -5
194 8
195 -6
196 8
197 10
198 -9
199 -3
200 -8
EOF